p cnf 529 1
529 0
w 1 0.430911
w 2 1 0
w 2 -1 1
w 3 2 1
w 3 -2 0
w 4 3 1
w 4 -3 0
w 5 4 0
w 5 -4 1
w 6 5 0.726798
w 6 -5 0.0804836
w 7 6 0.708389
w 7 -6 0.960407
w 8 7 0
w 8 -7 1
w 9 8 1
w 9 -8 0
w 10 9 0
w 10 -9 1
w 11 10 0
w 11 -10 1
w 12 11 0
w 12 -11 1
w 13 12 1
w 13 -12 0
w 14 13 0.296135
w 14 -13 0.660692
w 15 14 0
w 15 -14 1
w 16 15 0.0404994
w 16 -15 0.928715
w 17 16 0.167085
w 17 -16 0.274673
w 18 17 0
w 18 -17 1
w 19 18 0
w 19 -18 1
w 20 19 1
w 20 -19 0
w 21 20 1
w 21 -20 0
w 22 21 1
w 22 -21 0
w 23 22 1
w 23 -22 0
w 24 1 1
w 24 -1 0
w 25 24 2 1
w 25 24 -2 0
w 25 -24 2 1
w 25 -24 -2 1
w 26 25 3 0
w 26 25 -3 1
w 26 -25 3 1
w 26 -25 -3 0
w 27 26 4 0
w 27 26 -4 0
w 27 -26 4 0
w 27 -26 -4 1
w 28 27 5 1
w 28 27 -5 1
w 28 -27 5 0
w 28 -27 -5 1
w 29 28 6 1
w 29 28 -6 0
w 29 -28 6 0
w 29 -28 -6 0
w 30 29 7 0.0791883
w 30 29 -7 0.822003
w 30 -29 7 0.741907
w 30 -29 -7 0.801077
w 31 30 8 0
w 31 30 -8 0
w 31 -30 8 1
w 31 -30 -8 1
w 32 31 9 1
w 32 31 -9 0
w 32 -31 9 1
w 32 -31 -9 0
w 33 32 10 1
w 33 32 -10 1
w 33 -32 10 1
w 33 -32 -10 0
w 34 33 11 0
w 34 33 -11 0
w 34 -33 11 0
w 34 -33 -11 1
w 35 34 12 0
w 35 34 -12 1
w 35 -34 12 1
w 35 -34 -12 0
w 36 35 13 0.851219
w 36 35 -13 0.210651
w 36 -35 13 0.682094
w 36 -35 -13 0.593126
w 37 36 14 0
w 37 36 -14 1
w 37 -36 14 0
w 37 -36 -14 0
w 38 37 15 0
w 38 37 -15 1
w 38 -37 15 1
w 38 -37 -15 1
w 39 38 16 1
w 39 38 -16 1
w 39 -38 16 0
w 39 -38 -16 0
w 40 39 17 0.323212
w 40 39 -17 0.340241
w 40 -39 17 0.639559
w 40 -39 -17 0.488913
w 41 40 18 0
w 41 40 -18 0
w 41 -40 18 1
w 41 -40 -18 0
w 42 41 19 0
w 42 41 -19 1
w 42 -41 19 1
w 42 -41 -19 1
w 43 42 20 1
w 43 42 -20 1
w 43 -42 20 1
w 43 -42 -20 0
w 44 43 21 0.554517
w 44 43 -21 0.464364
w 44 -43 21 0.425264
w 44 -43 -21 0.131489
w 45 44 22 0
w 45 44 -22 0
w 45 -44 22 0
w 45 -44 -22 1
w 46 45 23 0
w 46 45 -23 1
w 46 -45 23 1
w 46 -45 -23 0
w 47 24 0
w 47 -24 1
w 48 47 25 0
w 48 47 -25 0
w 48 -47 25 0
w 48 -47 -25 1
w 49 48 26 1
w 49 48 -26 0
w 49 -48 26 1
w 49 -48 -26 1
w 50 49 27 1
w 50 49 -27 0
w 50 -49 27 1
w 50 -49 -27 1
w 51 50 28 0
w 51 50 -28 0
w 51 -50 28 1
w 51 -50 -28 1
w 52 51 29 1
w 52 51 -29 0
w 52 -51 29 1
w 52 -51 -29 0
w 53 52 30 0.705359
w 53 52 -30 0.84732
w 53 -52 30 0.321119
w 53 -52 -30 0.729057
w 54 53 31 0.618057
w 54 53 -31 0.934297
w 54 -53 31 0.111441
w 54 -53 -31 0.731494
w 55 54 32 1
w 55 54 -32 0
w 55 -54 32 0
w 55 -54 -32 1
w 56 55 33 1
w 56 55 -33 0
w 56 -55 33 0
w 56 -55 -33 1
w 57 56 34 1
w 57 56 -34 1
w 57 -56 34 1
w 57 -56 -34 0
w 58 57 35 0.241624
w 58 57 -35 0.924002
w 58 -57 35 0.981882
w 58 -57 -35 0.0332706
w 59 58 36 1
w 59 58 -36 0
w 59 -58 36 0
w 59 -58 -36 0
w 60 59 37 1
w 60 59 -37 1
w 60 -59 37 0
w 60 -59 -37 0
w 61 60 38 0
w 61 60 -38 0
w 61 -60 38 1
w 61 -60 -38 1
w 62 61 39 0
w 62 61 -39 1
w 62 -61 39 0
w 62 -61 -39 1
w 63 62 40 1
w 63 62 -40 0
w 63 -62 40 1
w 63 -62 -40 1
w 64 63 41 0
w 64 63 -41 0
w 64 -63 41 1
w 64 -63 -41 0
w 65 64 42 0.120407
w 65 64 -42 0.736986
w 65 -64 42 0.279505
w 65 -64 -42 0.588093
w 66 65 43 0
w 66 65 -43 1
w 66 -65 43 1
w 66 -65 -43 1
w 67 66 44 0
w 67 66 -44 1
w 67 -66 44 0
w 67 -66 -44 0
w 68 67 45 1
w 68 67 -45 0
w 68 -67 45 1
w 68 -67 -45 1
w 69 68 46 0
w 69 68 -46 1
w 69 -68 46 0
w 69 -68 -46 1
w 70 47 0
w 70 -47 1
w 71 70 48 0
w 71 70 -48 0
w 71 -70 48 1
w 71 -70 -48 0
w 72 71 49 0
w 72 71 -49 0
w 72 -71 49 1
w 72 -71 -49 1
w 73 72 50 1
w 73 72 -50 1
w 73 -72 50 1
w 73 -72 -50 0
w 74 73 51 0.121743
w 74 73 -51 0.0858585
w 74 -73 51 0.211492
w 74 -73 -51 0.186774
w 75 74 52 1
w 75 74 -52 0
w 75 -74 52 0
w 75 -74 -52 0
w 76 75 53 1
w 76 75 -53 0
w 76 -75 53 0
w 76 -75 -53 0
w 77 76 54 1
w 77 76 -54 0
w 77 -76 54 1
w 77 -76 -54 1
w 78 77 55 1
w 78 77 -55 1
w 78 -77 55 0
w 78 -77 -55 1
w 79 78 56 1
w 79 78 -56 0
w 79 -78 56 1
w 79 -78 -56 0
w 80 79 57 0
w 80 79 -57 0
w 80 -79 57 1
w 80 -79 -57 1
w 81 80 58 0
w 81 80 -58 0
w 81 -80 58 1
w 81 -80 -58 0
w 82 81 59 0.430528
w 82 81 -59 0.275549
w 82 -81 59 0.865488
w 82 -81 -59 0.0831856
w 83 82 60 0
w 83 82 -60 1
w 83 -82 60 0
w 83 -82 -60 1
w 84 83 61 1
w 84 83 -61 0
w 84 -83 61 0
w 84 -83 -61 0
w 85 84 62 0.0104704
w 85 84 -62 0.639173
w 85 -84 62 0.580772
w 85 -84 -62 0.873471
w 86 85 63 1
w 86 85 -63 1
w 86 -85 63 0
w 86 -85 -63 0
w 87 86 64 0
w 87 86 -64 1
w 87 -86 64 1
w 87 -86 -64 0
w 88 87 65 0
w 88 87 -65 1
w 88 -87 65 0
w 88 -87 -65 1
w 89 88 66 1
w 89 88 -66 0
w 89 -88 66 0
w 89 -88 -66 1
w 90 89 67 0
w 90 89 -67 0
w 90 -89 67 0
w 90 -89 -67 1
w 91 90 68 0
w 91 90 -68 1
w 91 -90 68 1
w 91 -90 -68 1
w 92 91 69 0
w 92 91 -69 0
w 92 -91 69 1
w 92 -91 -69 1
w 93 70 0.339082
w 93 -70 0.548621
w 94 93 71 0
w 94 93 -71 1
w 94 -93 71 1
w 94 -93 -71 1
w 95 94 72 0
w 95 94 -72 0
w 95 -94 72 1
w 95 -94 -72 0
w 96 95 73 1
w 96 95 -73 0
w 96 -95 73 0
w 96 -95 -73 0
w 97 96 74 1
w 97 96 -74 1
w 97 -96 74 0
w 97 -96 -74 0
w 98 97 75 1
w 98 97 -75 1
w 98 -97 75 0
w 98 -97 -75 0
w 99 98 76 1
w 99 98 -76 1
w 99 -98 76 0
w 99 -98 -76 1
w 100 99 77 1
w 100 99 -77 0
w 100 -99 77 1
w 100 -99 -77 1
w 101 100 78 0.102068
w 101 100 -78 0.873096
w 101 -100 78 0.0589035
w 101 -100 -78 0.653127
w 102 101 79 1
w 102 101 -79 0
w 102 -101 79 1
w 102 -101 -79 1
w 103 102 80 0
w 103 102 -80 0
w 103 -102 80 0
w 103 -102 -80 1
w 104 103 81 1
w 104 103 -81 0
w 104 -103 81 0
w 104 -103 -81 1
w 105 104 82 0.962282
w 105 104 -82 0.872529
w 105 -104 82 0.572601
w 105 -104 -82 0.565204
w 106 105 83 1
w 106 105 -83 1
w 106 -105 83 1
w 106 -105 -83 0
w 107 106 84 0
w 107 106 -84 0
w 107 -106 84 0
w 107 -106 -84 1
w 108 107 85 1
w 108 107 -85 0
w 108 -107 85 0
w 108 -107 -85 1
w 109 108 86 0
w 109 108 -86 1
w 109 -108 86 0
w 109 -108 -86 0
w 110 109 87 0.368666
w 110 109 -87 0.628785
w 110 -109 87 0.599936
w 110 -109 -87 0.431756
w 111 110 88 0
w 111 110 -88 1
w 111 -110 88 0
w 111 -110 -88 0
w 112 111 89 0.169003
w 112 111 -89 0.226836
w 112 -111 89 0.53449
w 112 -111 -89 0.241026
w 113 112 90 0
w 113 112 -90 1
w 113 -112 90 0
w 113 -112 -90 0
w 114 113 91 0
w 114 113 -91 1
w 114 -113 91 1
w 114 -113 -91 1
w 115 114 92 1
w 115 114 -92 0
w 115 -114 92 1
w 115 -114 -92 0
w 116 93 0
w 116 -93 1
w 117 116 94 0.190554
w 117 116 -94 0.605517
w 117 -116 94 0.259927
w 117 -116 -94 0.652455
w 118 117 95 0.425007
w 118 117 -95 0.686959
w 118 -117 95 0.958796
w 118 -117 -95 0.59401
w 119 118 96 0.493286
w 119 118 -96 0.835036
w 119 -118 96 0.497816
w 119 -118 -96 0.589071
w 120 119 97 1
w 120 119 -97 0
w 120 -119 97 1
w 120 -119 -97 0
w 121 120 98 0.844187
w 121 120 -98 0.837271
w 121 -120 98 0.685094
w 121 -120 -98 0.388747
w 122 121 99 0
w 122 121 -99 0
w 122 -121 99 1
w 122 -121 -99 1
w 123 122 100 1
w 123 122 -100 0
w 123 -122 100 1
w 123 -122 -100 1
w 124 123 101 0.972674
w 124 123 -101 0.33206
w 124 -123 101 0.496313
w 124 -123 -101 0.93147
w 125 124 102 0.410108
w 125 124 -102 0.424756
w 125 -124 102 0.761105
w 125 -124 -102 0.907924
w 126 125 103 0
w 126 125 -103 1
w 126 -125 103 0
w 126 -125 -103 1
w 127 126 104 0
w 127 126 -104 1
w 127 -126 104 1
w 127 -126 -104 1
w 128 127 105 1
w 128 127 -105 1
w 128 -127 105 0
w 128 -127 -105 0
w 129 128 106 1
w 129 128 -106 0
w 129 -128 106 0
w 129 -128 -106 0
w 130 129 107 0
w 130 129 -107 0
w 130 -129 107 0
w 130 -129 -107 1
w 131 130 108 0
w 131 130 -108 1
w 131 -130 108 1
w 131 -130 -108 1
w 132 131 109 0.613975
w 132 131 -109 0.0709639
w 132 -131 109 0.143804
w 132 -131 -109 0.932856
w 133 132 110 1
w 133 132 -110 0
w 133 -132 110 1
w 133 -132 -110 1
w 134 133 111 0.659331
w 134 133 -111 0.0438309
w 134 -133 111 0.0267626
w 134 -133 -111 0.589856
w 135 134 112 1
w 135 134 -112 1
w 135 -134 112 0
w 135 -134 -112 1
w 136 135 113 1
w 136 135 -113 1
w 136 -135 113 0
w 136 -135 -113 1
w 137 136 114 0
w 137 136 -114 1
w 137 -136 114 0
w 137 -136 -114 1
w 138 137 115 1
w 138 137 -115 0
w 138 -137 115 0
w 138 -137 -115 1
w 139 116 1
w 139 -116 0
w 140 139 117 1
w 140 139 -117 0
w 140 -139 117 1
w 140 -139 -117 0
w 141 140 118 1
w 141 140 -118 1
w 141 -140 118 0
w 141 -140 -118 0
w 142 141 119 0.140337
w 142 141 -119 0.515236
w 142 -141 119 0.290999
w 142 -141 -119 0.299568
w 143 142 120 1
w 143 142 -120 0
w 143 -142 120 1
w 143 -142 -120 0
w 144 143 121 1
w 144 143 -121 0
w 144 -143 121 1
w 144 -143 -121 0
w 145 144 122 1
w 145 144 -122 0
w 145 -144 122 0
w 145 -144 -122 0
w 146 145 123 0
w 146 145 -123 0
w 146 -145 123 1
w 146 -145 -123 0
w 147 146 124 1
w 147 146 -124 1
w 147 -146 124 0
w 147 -146 -124 1
w 148 147 125 0.750427
w 148 147 -125 0.65653
w 148 -147 125 0.139929
w 148 -147 -125 0.0499945
w 149 148 126 0.0103354
w 149 148 -126 0.752715
w 149 -148 126 0.17155
w 149 -148 -126 0.0658813
w 150 149 127 0
w 150 149 -127 1
w 150 -149 127 0
w 150 -149 -127 0
w 151 150 128 1
w 151 150 -128 1
w 151 -150 128 1
w 151 -150 -128 0
w 152 151 129 1
w 152 151 -129 0
w 152 -151 129 1
w 152 -151 -129 0
w 153 152 130 1
w 153 152 -130 1
w 153 -152 130 0
w 153 -152 -130 0
w 154 153 131 0
w 154 153 -131 0
w 154 -153 131 0
w 154 -153 -131 1
w 155 154 132 0.881174
w 155 154 -132 0.468054
w 155 -154 132 0.146495
w 155 -154 -132 0.947055
w 156 155 133 0
w 156 155 -133 0
w 156 -155 133 1
w 156 -155 -133 1
w 157 156 134 0.742524
w 157 156 -134 0.496951
w 157 -156 134 0.326608
w 157 -156 -134 0.467225
w 158 157 135 1
w 158 157 -135 1
w 158 -157 135 1
w 158 -157 -135 0
w 159 158 136 0
w 159 158 -136 1
w 159 -158 136 0
w 159 -158 -136 0
w 160 159 137 1
w 160 159 -137 0
w 160 -159 137 1
w 160 -159 -137 1
w 161 160 138 0.34672
w 161 160 -138 0.110463
w 161 -160 138 0.266409
w 161 -160 -138 0.335679
w 162 139 1
w 162 -139 0
w 163 162 140 0
w 163 162 -140 1
w 163 -162 140 1
w 163 -162 -140 0
w 164 163 141 1
w 164 163 -141 0
w 164 -163 141 1
w 164 -163 -141 0
w 165 164 142 0
w 165 164 -142 0
w 165 -164 142 1
w 165 -164 -142 1
w 166 165 143 1
w 166 165 -143 0
w 166 -165 143 0
w 166 -165 -143 0
w 167 166 144 1
w 167 166 -144 0
w 167 -166 144 1
w 167 -166 -144 0
w 168 167 145 1
w 168 167 -145 0
w 168 -167 145 1
w 168 -167 -145 0
w 169 168 146 0
w 169 168 -146 1
w 169 -168 146 0
w 169 -168 -146 1
w 170 169 147 0
w 170 169 -147 1
w 170 -169 147 1
w 170 -169 -147 0
w 171 170 148 0
w 171 170 -148 0
w 171 -170 148 1
w 171 -170 -148 1
w 172 171 149 1
w 172 171 -149 1
w 172 -171 149 0
w 172 -171 -149 1
w 173 172 150 0
w 173 172 -150 0
w 173 -172 150 1
w 173 -172 -150 1
w 174 173 151 0.263193
w 174 173 -151 0.817361
w 174 -173 151 0.00293192
w 174 -173 -151 0.612787
w 175 174 152 1
w 175 174 -152 1
w 175 -174 152 0
w 175 -174 -152 1
w 176 175 153 1
w 176 175 -153 0
w 176 -175 153 1
w 176 -175 -153 1
w 177 176 154 1
w 177 176 -154 1
w 177 -176 154 0
w 177 -176 -154 0
w 178 177 155 0.299327
w 178 177 -155 0.475721
w 178 -177 155 0.00416678
w 178 -177 -155 0.911844
w 179 178 156 1
w 179 178 -156 0
w 179 -178 156 0
w 179 -178 -156 1
w 180 179 157 0
w 180 179 -157 0
w 180 -179 157 0
w 180 -179 -157 1
w 181 180 158 1
w 181 180 -158 0
w 181 -180 158 1
w 181 -180 -158 1
w 182 181 159 0
w 182 181 -159 0
w 182 -181 159 0
w 182 -181 -159 1
w 183 182 160 0.704706
w 183 182 -160 0.776283
w 183 -182 160 0.807439
w 183 -182 -160 0.698472
w 184 183 161 0.696493
w 184 183 -161 0.997799
w 184 -183 161 0.256289
w 184 -183 -161 0.70066
w 185 162 0.915289
w 185 -162 0.286909
w 186 185 163 0
w 186 185 -163 0
w 186 -185 163 0
w 186 -185 -163 1
w 187 186 164 0
w 187 186 -164 0
w 187 -186 164 1
w 187 -186 -164 1
w 188 187 165 0
w 188 187 -165 0
w 188 -187 165 1
w 188 -187 -165 0
w 189 188 166 0
w 189 188 -166 1
w 189 -188 166 0
w 189 -188 -166 0
w 190 189 167 0.123059
w 190 189 -167 0.353496
w 190 -189 167 0.773147
w 190 -189 -167 0.379348
w 191 190 168 0
w 191 190 -168 1
w 191 -190 168 0
w 191 -190 -168 0
w 192 191 169 1
w 192 191 -169 0
w 192 -191 169 0
w 192 -191 -169 1
w 193 192 170 0.0380373
w 193 192 -170 0.617317
w 193 -192 170 0.695081
w 193 -192 -170 0.557166
w 194 193 171 1
w 194 193 -171 1
w 194 -193 171 1
w 194 -193 -171 0
w 195 194 172 1
w 195 194 -172 0
w 195 -194 172 0
w 195 -194 -172 0
w 196 195 173 0.0327899
w 196 195 -173 0.982109
w 196 -195 173 0.136644
w 196 -195 -173 0.805937
w 197 196 174 1
w 197 196 -174 1
w 197 -196 174 1
w 197 -196 -174 0
w 198 197 175 0
w 198 197 -175 0
w 198 -197 175 1
w 198 -197 -175 0
w 199 198 176 0.395022
w 199 198 -176 0.297336
w 199 -198 176 0.460084
w 199 -198 -176 0.952188
w 200 199 177 0.678907
w 200 199 -177 0.760583
w 200 -199 177 0.744404
w 200 -199 -177 0.955487
w 201 200 178 0.260963
w 201 200 -178 0.0816312
w 201 -200 178 0.198591
w 201 -200 -178 0.120013
w 202 201 179 0.231381
w 202 201 -179 0.102121
w 202 -201 179 0.0014224
w 202 -201 -179 0.0373174
w 203 202 180 1
w 203 202 -180 0
w 203 -202 180 1
w 203 -202 -180 1
w 204 203 181 1
w 204 203 -181 1
w 204 -203 181 1
w 204 -203 -181 0
w 205 204 182 1
w 205 204 -182 0
w 205 -204 182 0
w 205 -204 -182 0
w 206 205 183 1
w 206 205 -183 0
w 206 -205 183 0
w 206 -205 -183 1
w 207 206 184 1
w 207 206 -184 0
w 207 -206 184 1
w 207 -206 -184 1
w 208 185 1
w 208 -185 0
w 209 208 186 1
w 209 208 -186 0
w 209 -208 186 1
w 209 -208 -186 1
w 210 209 187 0
w 210 209 -187 0
w 210 -209 187 1
w 210 -209 -187 0
w 211 210 188 1
w 211 210 -188 0
w 211 -210 188 1
w 211 -210 -188 1
w 212 211 189 0.251816
w 212 211 -189 0.0836549
w 212 -211 189 0.459317
w 212 -211 -189 0.742674
w 213 212 190 1
w 213 212 -190 1
w 213 -212 190 1
w 213 -212 -190 0
w 214 213 191 0
w 214 213 -191 1
w 214 -213 191 1
w 214 -213 -191 1
w 215 214 192 1
w 215 214 -192 0
w 215 -214 192 0
w 215 -214 -192 0
w 216 215 193 0
w 216 215 -193 1
w 216 -215 193 1
w 216 -215 -193 1
w 217 216 194 1
w 217 216 -194 0
w 217 -216 194 1
w 217 -216 -194 0
w 218 217 195 0.679885
w 218 217 -195 0.0742987
w 218 -217 195 0.914194
w 218 -217 -195 0.139201
w 219 218 196 0.614318
w 219 218 -196 0.899426
w 219 -218 196 0.794908
w 219 -218 -196 0.886398
w 220 219 197 0.26907
w 220 219 -197 0.812066
w 220 -219 197 0.344638
w 220 -219 -197 0.359469
w 221 220 198 1
w 221 220 -198 1
w 221 -220 198 0
w 221 -220 -198 1
w 222 221 199 1
w 222 221 -199 1
w 222 -221 199 0
w 222 -221 -199 1
w 223 222 200 1
w 223 222 -200 0
w 223 -222 200 1
w 223 -222 -200 1
w 224 223 201 0
w 224 223 -201 1
w 224 -223 201 1
w 224 -223 -201 1
w 225 224 202 0.402929
w 225 224 -202 0.360668
w 225 -224 202 0.783813
w 225 -224 -202 0.289327
w 226 225 203 1
w 226 225 -203 1
w 226 -225 203 0
w 226 -225 -203 1
w 227 226 204 0
w 227 226 -204 0
w 227 -226 204 1
w 227 -226 -204 1
w 228 227 205 0
w 228 227 -205 1
w 228 -227 205 0
w 228 -227 -205 1
w 229 228 206 0
w 229 228 -206 1
w 229 -228 206 1
w 229 -228 -206 1
w 230 229 207 0.971834
w 230 229 -207 0.0361808
w 230 -229 207 0.0255628
w 230 -229 -207 0.760444
w 231 208 1
w 231 -208 0
w 232 231 209 0
w 232 231 -209 0
w 232 -231 209 1
w 232 -231 -209 1
w 233 232 210 0.554092
w 233 232 -210 0.727481
w 233 -232 210 0.263515
w 233 -232 -210 0.911584
w 234 233 211 0.844093
w 234 233 -211 0.488997
w 234 -233 211 0.144608
w 234 -233 -211 0.583593
w 235 234 212 0.83872
w 235 234 -212 0.774315
w 235 -234 212 0.443008
w 235 -234 -212 0.892261
w 236 235 213 0.199005
w 236 235 -213 0.989679
w 236 -235 213 0.56044
w 236 -235 -213 0.0526351
w 237 236 214 0.596621
w 237 236 -214 0.0781979
w 237 -236 214 0.721957
w 237 -236 -214 0.0940433
w 238 237 215 1
w 238 237 -215 1
w 238 -237 215 1
w 238 -237 -215 0
w 239 238 216 1
w 239 238 -216 1
w 239 -238 216 1
w 239 -238 -216 0
w 240 239 217 0.594173
w 240 239 -217 0.849718
w 240 -239 217 0.292702
w 240 -239 -217 0.738781
w 241 240 218 0
w 241 240 -218 1
w 241 -240 218 1
w 241 -240 -218 1
w 242 241 219 1
w 242 241 -219 1
w 242 -241 219 1
w 242 -241 -219 0
w 243 242 220 0.420954
w 243 242 -220 0.210987
w 243 -242 220 0.0277107
w 243 -242 -220 0.142911
w 244 243 221 0
w 244 243 -221 1
w 244 -243 221 1
w 244 -243 -221 1
w 245 244 222 0
w 245 244 -222 1
w 245 -244 222 1
w 245 -244 -222 0
w 246 245 223 0
w 246 245 -223 1
w 246 -245 223 1
w 246 -245 -223 1
w 247 246 224 1
w 247 246 -224 0
w 247 -246 224 1
w 247 -246 -224 0
w 248 247 225 0
w 248 247 -225 0
w 248 -247 225 1
w 248 -247 -225 0
w 249 248 226 1
w 249 248 -226 0
w 249 -248 226 1
w 249 -248 -226 1
w 250 249 227 1
w 250 249 -227 1
w 250 -249 227 0
w 250 -249 -227 1
w 251 250 228 0
w 251 250 -228 0
w 251 -250 228 1
w 251 -250 -228 0
w 252 251 229 1
w 252 251 -229 1
w 252 -251 229 1
w 252 -251 -229 0
w 253 252 230 0
w 253 252 -230 0
w 253 -252 230 1
w 253 -252 -230 1
w 254 231 0.0300376
w 254 -231 0.724753
w 255 254 232 0.948042
w 255 254 -232 0.878675
w 255 -254 232 0.24792
w 255 -254 -232 0.0770323
w 256 255 233 1
w 256 255 -233 1
w 256 -255 233 1
w 256 -255 -233 0
w 257 256 234 1
w 257 256 -234 1
w 257 -256 234 0
w 257 -256 -234 1
w 258 257 235 1
w 258 257 -235 1
w 258 -257 235 1
w 258 -257 -235 0
w 259 258 236 0
w 259 258 -236 1
w 259 -258 236 0
w 259 -258 -236 1
w 260 259 237 0.205923
w 260 259 -237 0.0416953
w 260 -259 237 0.852253
w 260 -259 -237 0.235961
w 261 260 238 0.709718
w 261 260 -238 0.184002
w 261 -260 238 0.645123
w 261 -260 -238 0.957638
w 262 261 239 1
w 262 261 -239 0
w 262 -261 239 0
w 262 -261 -239 0
w 263 262 240 0
w 263 262 -240 1
w 263 -262 240 0
w 263 -262 -240 0
w 264 263 241 0
w 264 263 -241 1
w 264 -263 241 1
w 264 -263 -241 1
w 265 264 242 0.0568896
w 265 264 -242 0.823553
w 265 -264 242 0.406654
w 265 -264 -242 0.536414
w 266 265 243 0
w 266 265 -243 0
w 266 -265 243 1
w 266 -265 -243 0
w 267 266 244 0.153049
w 267 266 -244 0.932915
w 267 -266 244 0.1623
w 267 -266 -244 0.798172
w 268 267 245 0.423335
w 268 267 -245 0.503603
w 268 -267 245 0.629478
w 268 -267 -245 0.195422
w 269 268 246 1
w 269 268 -246 0
w 269 -268 246 1
w 269 -268 -246 1
w 270 269 247 1
w 270 269 -247 1
w 270 -269 247 0
w 270 -269 -247 1
w 271 270 248 0
w 271 270 -248 1
w 271 -270 248 1
w 271 -270 -248 1
w 272 271 249 0
w 272 271 -249 1
w 272 -271 249 0
w 272 -271 -249 1
w 273 272 250 0.168554
w 273 272 -250 0.0966266
w 273 -272 250 0.692717
w 273 -272 -250 0.330854
w 274 273 251 0.583269
w 274 273 -251 0.754189
w 274 -273 251 0.398401
w 274 -273 -251 0.212748
w 275 274 252 0.969753
w 275 274 -252 0.924045
w 275 -274 252 0.119358
w 275 -274 -252 0.284504
w 276 275 253 0.486615
w 276 275 -253 0.0850689
w 276 -275 253 0.861438
w 276 -275 -253 0.425355
w 277 254 0.249956
w 277 -254 0.184362
w 278 277 255 0.462028
w 278 277 -255 0.350023
w 278 -277 255 0.299112
w 278 -277 -255 0.0190048
w 279 278 256 0.489369
w 279 278 -256 0.962583
w 279 -278 256 0.64643
w 279 -278 -256 0.657923
w 280 279 257 1
w 280 279 -257 1
w 280 -279 257 1
w 280 -279 -257 0
w 281 280 258 0
w 281 280 -258 0
w 281 -280 258 0
w 281 -280 -258 1
w 282 281 259 1
w 282 281 -259 1
w 282 -281 259 0
w 282 -281 -259 0
w 283 282 260 1
w 283 282 -260 1
w 283 -282 260 1
w 283 -282 -260 0
w 284 283 261 0.482613
w 284 283 -261 0.620561
w 284 -283 261 0.258292
w 284 -283 -261 0.781725
w 285 284 262 1
w 285 284 -262 1
w 285 -284 262 1
w 285 -284 -262 0
w 286 285 263 0.661357
w 286 285 -263 0.130495
w 286 -285 263 0.917796
w 286 -285 -263 0.615365
w 287 286 264 1
w 287 286 -264 1
w 287 -286 264 1
w 287 -286 -264 0
w 288 287 265 1
w 288 287 -265 1
w 288 -287 265 0
w 288 -287 -265 1
w 289 288 266 1
w 289 288 -266 0
w 289 -288 266 0
w 289 -288 -266 0
w 290 289 267 0
w 290 289 -267 1
w 290 -289 267 0
w 290 -289 -267 0
w 291 290 268 1
w 291 290 -268 1
w 291 -290 268 0
w 291 -290 -268 0
w 292 291 269 1
w 292 291 -269 0
w 292 -291 269 1
w 292 -291 -269 0
w 293 292 270 1
w 293 292 -270 0
w 293 -292 270 1
w 293 -292 -270 0
w 294 293 271 0
w 294 293 -271 1
w 294 -293 271 1
w 294 -293 -271 0
w 295 294 272 0
w 295 294 -272 1
w 295 -294 272 1
w 295 -294 -272 0
w 296 295 273 0
w 296 295 -273 0
w 296 -295 273 1
w 296 -295 -273 0
w 297 296 274 0.649394
w 297 296 -274 0.372026
w 297 -296 274 0.382453
w 297 -296 -274 0.404583
w 298 297 275 1
w 298 297 -275 0
w 298 -297 275 0
w 298 -297 -275 1
w 299 298 276 1
w 299 298 -276 0
w 299 -298 276 0
w 299 -298 -276 0
w 300 277 0
w 300 -277 1
w 301 300 278 0
w 301 300 -278 1
w 301 -300 278 0
w 301 -300 -278 1
w 302 301 279 1
w 302 301 -279 0
w 302 -301 279 1
w 302 -301 -279 1
w 303 302 280 1
w 303 302 -280 0
w 303 -302 280 1
w 303 -302 -280 1
w 304 303 281 1
w 304 303 -281 1
w 304 -303 281 1
w 304 -303 -281 0
w 305 304 282 1
w 305 304 -282 0
w 305 -304 282 1
w 305 -304 -282 0
w 306 305 283 1
w 306 305 -283 0
w 306 -305 283 0
w 306 -305 -283 0
w 307 306 284 0
w 307 306 -284 0
w 307 -306 284 0
w 307 -306 -284 1
w 308 307 285 0.0383966
w 308 307 -285 0.325783
w 308 -307 285 0.62155
w 308 -307 -285 0.0675971
w 309 308 286 0.139736
w 309 308 -286 0.625742
w 309 -308 286 0.629085
w 309 -308 -286 0.408291
w 310 309 287 0
w 310 309 -287 1
w 310 -309 287 1
w 310 -309 -287 1
w 311 310 288 0
w 311 310 -288 1
w 311 -310 288 0
w 311 -310 -288 1
w 312 311 289 1
w 312 311 -289 0
w 312 -311 289 1
w 312 -311 -289 1
w 313 312 290 0.207192
w 313 312 -290 0.0552566
w 313 -312 290 0.300642
w 313 -312 -290 0.426904
w 314 313 291 0.339038
w 314 313 -291 0.752688
w 314 -313 291 0.548446
w 314 -313 -291 0.406635
w 315 314 292 0
w 315 314 -292 1
w 315 -314 292 0
w 315 -314 -292 0
w 316 315 293 0
w 316 315 -293 1
w 316 -315 293 1
w 316 -315 -293 0
w 317 316 294 1
w 317 316 -294 1
w 317 -316 294 0
w 317 -316 -294 1
w 318 317 295 0
w 318 317 -295 1
w 318 -317 295 0
w 318 -317 -295 1
w 319 318 296 0
w 319 318 -296 0
w 319 -318 296 1
w 319 -318 -296 1
w 320 319 297 0
w 320 319 -297 0
w 320 -319 297 1
w 320 -319 -297 0
w 321 320 298 1
w 321 320 -298 0
w 321 -320 298 0
w 321 -320 -298 1
w 322 321 299 0.58548
w 322 321 -299 0.482129
w 322 -321 299 0.809089
w 322 -321 -299 0.675873
w 323 300 0.187373
w 323 -300 0.444392
w 324 323 301 0
w 324 323 -301 1
w 324 -323 301 1
w 324 -323 -301 0
w 325 324 302 1
w 325 324 -302 0
w 325 -324 302 1
w 325 -324 -302 1
w 326 325 303 0.278322
w 326 325 -303 0.14114
w 326 -325 303 0.102412
w 326 -325 -303 0.650437
w 327 326 304 1
w 327 326 -304 0
w 327 -326 304 0
w 327 -326 -304 0
w 328 327 305 0
w 328 327 -305 1
w 328 -327 305 0
w 328 -327 -305 0
w 329 328 306 0
w 329 328 -306 1
w 329 -328 306 1
w 329 -328 -306 1
w 330 329 307 0.130814
w 330 329 -307 0.49238
w 330 -329 307 0.906903
w 330 -329 -307 0.371634
w 331 330 308 0.967579
w 331 330 -308 0.252877
w 331 -330 308 0.617647
w 331 -330 -308 0.105039
w 332 331 309 0
w 332 331 -309 0
w 332 -331 309 0
w 332 -331 -309 1
w 333 332 310 0.966748
w 333 332 -310 0.216429
w 333 -332 310 0.873019
w 333 -332 -310 0.475016
w 334 333 311 0
w 334 333 -311 0
w 334 -333 311 1
w 334 -333 -311 0
w 335 334 312 0.961768
w 335 334 -312 0.561111
w 335 -334 312 0.261233
w 335 -334 -312 0.633683
w 336 335 313 0
w 336 335 -313 0
w 336 -335 313 1
w 336 -335 -313 1
w 337 336 314 0
w 337 336 -314 1
w 337 -336 314 0
w 337 -336 -314 0
w 338 337 315 1
w 338 337 -315 0
w 338 -337 315 0
w 338 -337 -315 1
w 339 338 316 0
w 339 338 -316 0
w 339 -338 316 0
w 339 -338 -316 1
w 340 339 317 0
w 340 339 -317 1
w 340 -339 317 0
w 340 -339 -317 0
w 341 340 318 0
w 341 340 -318 1
w 341 -340 318 0
w 341 -340 -318 1
w 342 341 319 0.339949
w 342 341 -319 0.213558
w 342 -341 319 0.576823
w 342 -341 -319 0.404779
w 343 342 320 1
w 343 342 -320 0
w 343 -342 320 1
w 343 -342 -320 0
w 344 343 321 0
w 344 343 -321 1
w 344 -343 321 1
w 344 -343 -321 1
w 345 344 322 1
w 345 344 -322 1
w 345 -344 322 1
w 345 -344 -322 0
w 346 323 0.473054
w 346 -323 0.48791
w 347 346 324 0.68993
w 347 346 -324 0.694298
w 347 -346 324 0.608828
w 347 -346 -324 0.868574
w 348 347 325 0
w 348 347 -325 1
w 348 -347 325 0
w 348 -347 -325 1
w 349 348 326 1
w 349 348 -326 1
w 349 -348 326 0
w 349 -348 -326 1
w 350 349 327 0
w 350 349 -327 0
w 350 -349 327 1
w 350 -349 -327 1
w 351 350 328 0
w 351 350 -328 0
w 351 -350 328 0
w 351 -350 -328 1
w 352 351 329 1
w 352 351 -329 0
w 352 -351 329 0
w 352 -351 -329 0
w 353 352 330 1
w 353 352 -330 0
w 353 -352 330 0
w 353 -352 -330 0
w 354 353 331 0
w 354 353 -331 1
w 354 -353 331 0
w 354 -353 -331 0
w 355 354 332 0.326746
w 355 354 -332 0.71432
w 355 -354 332 0.93294
w 355 -354 -332 0.961632
w 356 355 333 0
w 356 355 -333 1
w 356 -355 333 1
w 356 -355 -333 1
w 357 356 334 0.381229
w 357 356 -334 0.491096
w 357 -356 334 0.979032
w 357 -356 -334 0.878315
w 358 357 335 1
w 358 357 -335 0
w 358 -357 335 0
w 358 -357 -335 1
w 359 358 336 1
w 359 358 -336 1
w 359 -358 336 0
w 359 -358 -336 1
w 360 359 337 0
w 360 359 -337 1
w 360 -359 337 0
w 360 -359 -337 1
w 361 360 338 1
w 361 360 -338 0
w 361 -360 338 0
w 361 -360 -338 0
w 362 361 339 0
w 362 361 -339 0
w 362 -361 339 0
w 362 -361 -339 1
w 363 362 340 0.942409
w 363 362 -340 0.346271
w 363 -362 340 0.355729
w 363 -362 -340 0.921441
w 364 363 341 0
w 364 363 -341 1
w 364 -363 341 1
w 364 -363 -341 0
w 365 364 342 1
w 365 364 -342 0
w 365 -364 342 0
w 365 -364 -342 0
w 366 365 343 0
w 366 365 -343 0
w 366 -365 343 1
w 366 -365 -343 0
w 367 366 344 0.225175
w 367 366 -344 0.136303
w 367 -366 344 0.302551
w 367 -366 -344 0.172198
w 368 367 345 1
w 368 367 -345 0
w 368 -367 345 0
w 368 -367 -345 0
w 369 346 0
w 369 -346 1
w 370 369 347 0
w 370 369 -347 0
w 370 -369 347 1
w 370 -369 -347 1
w 371 370 348 0
w 371 370 -348 1
w 371 -370 348 0
w 371 -370 -348 1
w 372 371 349 1
w 372 371 -349 0
w 372 -371 349 0
w 372 -371 -349 0
w 373 372 350 1
w 373 372 -350 1
w 373 -372 350 0
w 373 -372 -350 0
w 374 373 351 0
w 374 373 -351 1
w 374 -373 351 0
w 374 -373 -351 0
w 375 374 352 0
w 375 374 -352 1
w 375 -374 352 1
w 375 -374 -352 0
w 376 375 353 1
w 376 375 -353 1
w 376 -375 353 0
w 376 -375 -353 1
w 377 376 354 0.0784196
w 377 376 -354 0.417479
w 377 -376 354 0.919115
w 377 -376 -354 0.901507
w 378 377 355 0.0321763
w 378 377 -355 0.0422766
w 378 -377 355 0.0962026
w 378 -377 -355 0.0999501
w 379 378 356 1
w 379 378 -356 0
w 379 -378 356 0
w 379 -378 -356 1
w 380 379 357 0
w 380 379 -357 0
w 380 -379 357 1
w 380 -379 -357 1
w 381 380 358 1
w 381 380 -358 0
w 381 -380 358 0
w 381 -380 -358 1
w 382 381 359 0
w 382 381 -359 1
w 382 -381 359 1
w 382 -381 -359 1
w 383 382 360 1
w 383 382 -360 1
w 383 -382 360 0
w 383 -382 -360 1
w 384 383 361 0.53708
w 384 383 -361 0.490998
w 384 -383 361 0.898961
w 384 -383 -361 0.633283
w 385 384 362 0
w 385 384 -362 1
w 385 -384 362 1
w 385 -384 -362 0
w 386 385 363 0.192497
w 386 385 -363 0.672961
w 386 -385 363 0.450469
w 386 -385 -363 0.598124
w 387 386 364 1
w 387 386 -364 0
w 387 -386 364 0
w 387 -386 -364 0
w 388 387 365 0
w 388 387 -365 0
w 388 -387 365 0
w 388 -387 -365 1
w 389 388 366 1
w 389 388 -366 0
w 389 -388 366 1
w 389 -388 -366 0
w 390 389 367 1
w 390 389 -367 0
w 390 -389 367 0
w 390 -389 -367 1
w 391 390 368 1
w 391 390 -368 1
w 391 -390 368 1
w 391 -390 -368 0
w 392 369 0.179219
w 392 -369 0.351502
w 393 392 370 0
w 393 392 -370 1
w 393 -392 370 0
w 393 -392 -370 1
w 394 393 371 0
w 394 393 -371 1
w 394 -393 371 0
w 394 -393 -371 1
w 395 394 372 1
w 395 394 -372 0
w 395 -394 372 1
w 395 -394 -372 0
w 396 395 373 0
w 396 395 -373 0
w 396 -395 373 1
w 396 -395 -373 1
w 397 396 374 1
w 397 396 -374 0
w 397 -396 374 0
w 397 -396 -374 0
w 398 397 375 1
w 398 397 -375 0
w 398 -397 375 1
w 398 -397 -375 1
w 399 398 376 0
w 399 398 -376 1
w 399 -398 376 1
w 399 -398 -376 1
w 400 399 377 0.781437
w 400 399 -377 0.430605
w 400 -399 377 0.636635
w 400 -399 -377 0.733816
w 401 400 378 0.316113
w 401 400 -378 0.0407957
w 401 -400 378 0.472013
w 401 -400 -378 0.919417
w 402 401 379 0
w 402 401 -379 1
w 402 -401 379 1
w 402 -401 -379 1
w 403 402 380 1
w 403 402 -380 0
w 403 -402 380 0
w 403 -402 -380 1
w 404 403 381 1
w 404 403 -381 0
w 404 -403 381 1
w 404 -403 -381 0
w 405 404 382 1
w 405 404 -382 1
w 405 -404 382 0
w 405 -404 -382 0
w 406 405 383 0
w 406 405 -383 0
w 406 -405 383 0
w 406 -405 -383 1
w 407 406 384 1
w 407 406 -384 1
w 407 -406 384 1
w 407 -406 -384 0
w 408 407 385 1
w 408 407 -385 0
w 408 -407 385 1
w 408 -407 -385 1
w 409 408 386 0
w 409 408 -386 1
w 409 -408 386 0
w 409 -408 -386 0
w 410 409 387 0
w 410 409 -387 1
w 410 -409 387 1
w 410 -409 -387 0
w 411 410 388 0.157567
w 411 410 -388 0.0858043
w 411 -410 388 0.434327
w 411 -410 -388 0.7278
w 412 411 389 0
w 412 411 -389 1
w 412 -411 389 0
w 412 -411 -389 0
w 413 412 390 1
w 413 412 -390 1
w 413 -412 390 0
w 413 -412 -390 1
w 414 413 391 1
w 414 413 -391 0
w 414 -413 391 0
w 414 -413 -391 0
w 415 392 1
w 415 -392 0
w 416 415 393 0
w 416 415 -393 1
w 416 -415 393 0
w 416 -415 -393 0
w 417 416 394 1
w 417 416 -394 1
w 417 -416 394 0
w 417 -416 -394 1
w 418 417 395 0.547525
w 418 417 -395 0.192235
w 418 -417 395 0.525638
w 418 -417 -395 0.171796
w 419 418 396 0
w 419 418 -396 0
w 419 -418 396 0
w 419 -418 -396 1
w 420 419 397 1
w 420 419 -397 0
w 420 -419 397 1
w 420 -419 -397 1
w 421 420 398 0.526764
w 421 420 -398 0.545365
w 421 -420 398 0.510221
w 421 -420 -398 0.692414
w 422 421 399 1
w 422 421 -399 0
w 422 -421 399 0
w 422 -421 -399 1
w 423 422 400 1
w 423 422 -400 0
w 423 -422 400 1
w 423 -422 -400 1
w 424 423 401 1
w 424 423 -401 0
w 424 -423 401 1
w 424 -423 -401 1
w 425 424 402 0
w 425 424 -402 1
w 425 -424 402 0
w 425 -424 -402 1
w 426 425 403 0
w 426 425 -403 1
w 426 -425 403 0
w 426 -425 -403 1
w 427 426 404 1
w 427 426 -404 0
w 427 -426 404 1
w 427 -426 -404 0
w 428 427 405 0
w 428 427 -405 1
w 428 -427 405 1
w 428 -427 -405 1
w 429 428 406 1
w 429 428 -406 0
w 429 -428 406 0
w 429 -428 -406 0
w 430 429 407 0.875426
w 430 429 -407 0.226563
w 430 -429 407 0.775566
w 430 -429 -407 0.414899
w 431 430 408 0
w 431 430 -408 0
w 431 -430 408 1
w 431 -430 -408 0
w 432 431 409 1
w 432 431 -409 1
w 432 -431 409 1
w 432 -431 -409 0
w 433 432 410 0
w 433 432 -410 1
w 433 -432 410 0
w 433 -432 -410 0
w 434 433 411 0
w 434 433 -411 1
w 434 -433 411 1
w 434 -433 -411 1
w 435 434 412 1
w 435 434 -412 0
w 435 -434 412 0
w 435 -434 -412 1
w 436 435 413 0
w 436 435 -413 1
w 436 -435 413 1
w 436 -435 -413 1
w 437 436 414 0
w 437 436 -414 0
w 437 -436 414 1
w 437 -436 -414 0
w 438 415 0.149396
w 438 -415 0.255502
w 439 438 416 0.319953
w 439 438 -416 0.314897
w 439 -438 416 0.0542419
w 439 -438 -416 0.111577
w 440 439 417 0
w 440 439 -417 1
w 440 -439 417 0
w 440 -439 -417 0
w 441 440 418 0.366872
w 441 440 -418 0.772817
w 441 -440 418 0.425681
w 441 -440 -418 0.105282
w 442 441 419 1
w 442 441 -419 0
w 442 -441 419 1
w 442 -441 -419 0
w 443 442 420 1
w 443 442 -420 0
w 443 -442 420 0
w 443 -442 -420 0
w 444 443 421 0
w 444 443 -421 0
w 444 -443 421 0
w 444 -443 -421 1
w 445 444 422 0
w 445 444 -422 1
w 445 -444 422 1
w 445 -444 -422 0
w 446 445 423 0
w 446 445 -423 1
w 446 -445 423 0
w 446 -445 -423 0
w 447 446 424 0.399717
w 447 446 -424 0.287819
w 447 -446 424 0.624429
w 447 -446 -424 0.825398
w 448 447 425 0
w 448 447 -425 1
w 448 -447 425 1
w 448 -447 -425 1
w 449 448 426 0.138887
w 449 448 -426 0.761752
w 449 -448 426 0.185923
w 449 -448 -426 0.863055
w 450 449 427 1
w 450 449 -427 1
w 450 -449 427 0
w 450 -449 -427 1
w 451 450 428 1
w 451 450 -428 1
w 451 -450 428 0
w 451 -450 -428 0
w 452 451 429 0
w 452 451 -429 1
w 452 -451 429 1
w 452 -451 -429 0
w 453 452 430 1
w 453 452 -430 1
w 453 -452 430 0
w 453 -452 -430 1
w 454 453 431 1
w 454 453 -431 0
w 454 -453 431 0
w 454 -453 -431 0
w 455 454 432 1
w 455 454 -432 0
w 455 -454 432 1
w 455 -454 -432 0
w 456 455 433 0
w 456 455 -433 1
w 456 -455 433 0
w 456 -455 -433 1
w 457 456 434 0
w 457 456 -434 1
w 457 -456 434 0
w 457 -456 -434 0
w 458 457 435 1
w 458 457 -435 0
w 458 -457 435 0
w 458 -457 -435 0
w 459 458 436 1
w 459 458 -436 1
w 459 -458 436 1
w 459 -458 -436 0
w 460 459 437 0
w 460 459 -437 0
w 460 -459 437 1
w 460 -459 -437 0
w 461 438 0.486654
w 461 -438 0.778033
w 462 461 439 1
w 462 461 -439 1
w 462 -461 439 1
w 462 -461 -439 0
w 463 462 440 0
w 463 462 -440 0
w 463 -462 440 1
w 463 -462 -440 0
w 464 463 441 0.409618
w 464 463 -441 0.710804
w 464 -463 441 0.959173
w 464 -463 -441 0.693756
w 465 464 442 1
w 465 464 -442 0
w 465 -464 442 0
w 465 -464 -442 1
w 466 465 443 0
w 466 465 -443 1
w 466 -465 443 1
w 466 -465 -443 0
w 467 466 444 1
w 467 466 -444 1
w 467 -466 444 1
w 467 -466 -444 0
w 468 467 445 0
w 468 467 -445 1
w 468 -467 445 1
w 468 -467 -445 0
w 469 468 446 1
w 469 468 -446 1
w 469 -468 446 1
w 469 -468 -446 0
w 470 469 447 1
w 470 469 -447 0
w 470 -469 447 0
w 470 -469 -447 0
w 471 470 448 0.0551715
w 471 470 -448 0.10148
w 471 -470 448 0.115104
w 471 -470 -448 0.844042
w 472 471 449 0
w 472 471 -449 1
w 472 -471 449 0
w 472 -471 -449 0
w 473 472 450 0
w 473 472 -450 0
w 473 -472 450 1
w 473 -472 -450 0
w 474 473 451 1
w 474 473 -451 1
w 474 -473 451 0
w 474 -473 -451 0
w 475 474 452 1
w 475 474 -452 0
w 475 -474 452 1
w 475 -474 -452 1
w 476 475 453 0.39732
w 476 475 -453 0.0369124
w 476 -475 453 0.777171
w 476 -475 -453 0.203217
w 477 476 454 0.832342
w 477 476 -454 0.304697
w 477 -476 454 0.932759
w 477 -476 -454 0.676384
w 478 477 455 0
w 478 477 -455 1
w 478 -477 455 0
w 478 -477 -455 1
w 479 478 456 1
w 479 478 -456 1
w 479 -478 456 0
w 479 -478 -456 1
w 480 479 457 0
w 480 479 -457 0
w 480 -479 457 0
w 480 -479 -457 1
w 481 480 458 0.614735
w 481 480 -458 0.209511
w 481 -480 458 0.525045
w 481 -480 -458 0.899913
w 482 481 459 0
w 482 481 -459 0
w 482 -481 459 0
w 482 -481 -459 1
w 483 482 460 0.893322
w 483 482 -460 0.805147
w 483 -482 460 0.825079
w 483 -482 -460 0.569706
w 484 461 0
w 484 -461 1
w 485 484 462 0
w 485 484 -462 1
w 485 -484 462 1
w 485 -484 -462 0
w 486 485 463 0.930024
w 486 485 -463 0.290502
w 486 -485 463 0.0255864
w 486 -485 -463 0.513916
w 487 486 464 1
w 487 486 -464 0
w 487 -486 464 1
w 487 -486 -464 1
w 488 487 465 0.572317
w 488 487 -465 0.640318
w 488 -487 465 0.17842
w 488 -487 -465 0.86955
w 489 488 466 0
w 489 488 -466 1
w 489 -488 466 1
w 489 -488 -466 0
w 490 489 467 1
w 490 489 -467 1
w 490 -489 467 0
w 490 -489 -467 0
w 491 490 468 0
w 491 490 -468 1
w 491 -490 468 0
w 491 -490 -468 0
w 492 491 469 0
w 492 491 -469 1
w 492 -491 469 1
w 492 -491 -469 0
w 493 492 470 1
w 493 492 -470 1
w 493 -492 470 0
w 493 -492 -470 0
w 494 493 471 0.780588
w 494 493 -471 0.975654
w 494 -493 471 0.627979
w 494 -493 -471 0.959008
w 495 494 472 0.342961
w 495 494 -472 0.198408
w 495 -494 472 0.215203
w 495 -494 -472 0.950262
w 496 495 473 1
w 496 495 -473 0
w 496 -495 473 1
w 496 -495 -473 1
w 497 496 474 0
w 497 496 -474 0
w 497 -496 474 1
w 497 -496 -474 1
w 498 497 475 1
w 498 497 -475 1
w 498 -497 475 0
w 498 -497 -475 1
w 499 498 476 1
w 499 498 -476 0
w 499 -498 476 0
w 499 -498 -476 0
w 500 499 477 0
w 500 499 -477 0
w 500 -499 477 0
w 500 -499 -477 1
w 501 500 478 0
w 501 500 -478 1
w 501 -500 478 1
w 501 -500 -478 0
w 502 501 479 1
w 502 501 -479 1
w 502 -501 479 0
w 502 -501 -479 1
w 503 502 480 0
w 503 502 -480 1
w 503 -502 480 1
w 503 -502 -480 0
w 504 503 481 0
w 504 503 -481 0
w 504 -503 481 1
w 504 -503 -481 1
w 505 504 482 1
w 505 504 -482 1
w 505 -504 482 1
w 505 -504 -482 0
w 506 505 483 0
w 506 505 -483 0
w 506 -505 483 1
w 506 -505 -483 0
w 507 484 0
w 507 -484 1
w 508 507 485 0
w 508 507 -485 0
w 508 -507 485 1
w 508 -507 -485 0
w 509 508 486 1
w 509 508 -486 0
w 509 -508 486 1
w 509 -508 -486 1
w 510 509 487 0
w 510 509 -487 0
w 510 -509 487 1
w 510 -509 -487 0
w 511 510 488 0.223768
w 511 510 -488 0.574847
w 511 -510 488 0.0343064
w 511 -510 -488 0.899521
w 512 511 489 0
w 512 511 -489 0
w 512 -511 489 1
w 512 -511 -489 1
w 513 512 490 0.643845
w 513 512 -490 0.879189
w 513 -512 490 0.0583678
w 513 -512 -490 0.333892
w 514 513 491 1
w 514 513 -491 0
w 514 -513 491 1
w 514 -513 -491 1
w 515 514 492 1
w 515 514 -492 0
w 515 -514 492 1
w 515 -514 -492 0
w 516 515 493 0.809335
w 516 515 -493 0.978589
w 516 -515 493 0.596849
w 516 -515 -493 0.443175
w 517 516 494 1
w 517 516 -494 0
w 517 -516 494 0
w 517 -516 -494 0
w 518 517 495 0
w 518 517 -495 0
w 518 -517 495 1
w 518 -517 -495 1
w 519 518 496 0.0605637
w 519 518 -496 0.247381
w 519 -518 496 0.770205
w 519 -518 -496 0.118931
w 520 519 497 0
w 520 519 -497 1
w 520 -519 497 0
w 520 -519 -497 1
w 521 520 498 1
w 521 520 -498 0
w 521 -520 498 0
w 521 -520 -498 0
w 522 521 499 1
w 522 521 -499 0
w 522 -521 499 0
w 522 -521 -499 0
w 523 522 500 1
w 523 522 -500 1
w 523 -522 500 0
w 523 -522 -500 1
w 524 523 501 0.593883
w 524 523 -501 0.352558
w 524 -523 501 0.959132
w 524 -523 -501 0.707424
w 525 524 502 0.850148
w 525 524 -502 0.767987
w 525 -524 502 0.203475
w 525 -524 -502 0.620352
w 526 525 503 0.784748
w 526 525 -503 0.859955
w 526 -525 503 0.0853699
w 526 -525 -503 0.690562
w 527 526 504 1
w 527 526 -504 0
w 527 -526 504 1
w 527 -526 -504 1
w 528 527 505 1
w 528 527 -505 0
w 528 -527 505 1
w 528 -527 -505 0
w 529 528 506 0.988268
w 529 528 -506 0.482144
w 529 -528 506 0.255598
w 529 -528 -506 0.015688